(set-logic QF_NRA_ODE)
; declaring functions and their bounds
(declare-fun DG1 () Real)
(declare-fun DG1_0_0 () Real)
(declare-fun DG1_0_t () Real)
(declare-fun DG2 () Real)
(declare-fun DG2_0_0 () Real)
(declare-fun DG2_0_t () Real)
(declare-fun DG3 () Real)
(declare-fun DG3_0_0 () Real)
(declare-fun DG3_0_t () Real)
(declare-fun G1 () Real)
(declare-fun G1_0_0 () Real)
(declare-fun G1_0_t () Real)
(assert (>= G1_0_0  0))
(assert (>= G1_0_t  0))
(assert (<= G1_0_0  1e3))
(assert (<= G1_0_t  1e3))
(declare-fun G2 () Real)
(declare-fun G2_0_0 () Real)
(declare-fun G2_0_t () Real)
(assert (>= G2_0_0  0))
(assert (>= G2_0_t  0))
(assert (<= G2_0_0  1e3))
(assert (<= G2_0_t  1e3))
(declare-fun I () Real)
(declare-fun I_0_0 () Real)
(declare-fun I_0_t () Real)
(assert (>= I_0_0  0))
(assert (>= I_0_t  0))
(assert (<= I_0_0  1e3))
(assert (<= I_0_t  1e3))
(declare-fun Kd () Real)
(declare-fun Kd_0_0 () Real)
(declare-fun Kd_0_t () Real)
(assert (>= Kd_0_0 (- 1e-1)))
(assert (>= Kd_0_t (- 1e-1)))
(assert (<= Kd_0_0  0))
(assert (<= Kd_0_t  0))
(declare-fun Ki () Real)
(declare-fun Ki_0_0 () Real)
(declare-fun Ki_0_t () Real)
(assert (>= Ki_0_0 (- 1e-6)))
(assert (>= Ki_0_t (- 1e-6)))
(assert (<= Ki_0_0  0))
(assert (<= Ki_0_t  0))
(declare-fun Kp () Real)
(declare-fun Kp_0_0 () Real)
(declare-fun Kp_0_t () Real)
(assert (>= Kp_0_0 (- 1e-3)))
(assert (>= Kp_0_t (- 1e-3)))
(assert (<= Kp_0_0  0))
(assert (<= Kp_0_t  0))
(declare-fun Q1 () Real)
(declare-fun Q1_0_0 () Real)
(declare-fun Q1_0_t () Real)
(assert (>= Q1_0_0  0))
(assert (>= Q1_0_t  0))
(assert (<= Q1_0_0  1e3))
(assert (<= Q1_0_t  1e3))
(declare-fun Q1_prev () Real)
(declare-fun Q1_prev_0_0 () Real)
(declare-fun Q1_prev_0_t () Real)
(assert (>= Q1_prev_0_0  0))
(assert (>= Q1_prev_0_t  0))
(assert (<= Q1_prev_0_0  1e3))
(assert (<= Q1_prev_0_t  1e3))
(declare-fun Q2 () Real)
(declare-fun Q2_0_0 () Real)
(declare-fun Q2_0_t () Real)
(assert (>= Q2_0_0  0))
(assert (>= Q2_0_t  0))
(assert (<= Q2_0_0  1e3))
(assert (<= Q2_0_t  1e3))
(declare-fun S1 () Real)
(declare-fun S1_0_0 () Real)
(declare-fun S1_0_t () Real)
(assert (>= S1_0_0  0))
(assert (>= S1_0_t  0))
(assert (<= S1_0_0  1e3))
(assert (<= S1_0_t  1e3))
(declare-fun S2 () Real)
(declare-fun S2_0_0 () Real)
(declare-fun S2_0_t () Real)
(assert (>= S2_0_0  0))
(assert (>= S2_0_t  0))
(assert (<= S2_0_0  1e3))
(assert (<= S2_0_t  1e3))
(declare-fun counter () Real)
(declare-fun counter_0_0 () Real)
(declare-fun counter_0_t () Real)
(assert (>= counter_0_0  0))
(assert (>= counter_0_t  0))
(assert (<= counter_0_0  1440))
(assert (<= counter_0_t  1440))
(declare-fun e () Real)
(declare-fun e_0_0 () Real)
(declare-fun e_0_t () Real)
(assert (>= e_0_0 (- 1e9)))
(assert (>= e_0_t (- 1e9)))
(assert (<= e_0_0  1e9))
(assert (<= e_0_t  1e9))
(declare-fun e_der () Real)
(declare-fun e_der_0_0 () Real)
(declare-fun e_der_0_t () Real)
(assert (>= e_der_0_0 (- 1e9)))
(assert (>= e_der_0_t (- 1e9)))
(assert (<= e_der_0_0  1e9))
(assert (<= e_der_0_t  1e9))
(declare-fun e_int () Real)
(declare-fun e_int_0_0 () Real)
(declare-fun e_int_0_t () Real)
(assert (>= e_int_0_0 (- 1e9)))
(assert (>= e_int_0_t (- 1e9)))
(assert (<= e_int_0_0  1e9))
(assert (<= e_int_0_t  1e9))
(declare-fun r () Real)
(declare-fun r_0_0 () Real)
(declare-fun r_0_t () Real)
(assert (>= r_0_0  0))
(assert (>= r_0_t  0))
(assert (<= r_0_0  1e3))
(assert (<= r_0_t  1e3))
(declare-fun tau () Real)
(declare-fun tau_0_0 () Real)
(declare-fun tau_0_t () Real)
(assert (>= tau_0_0  0))
(assert (>= tau_0_t  0))
(assert (<= tau_0_0  1440))
(assert (<= tau_0_t  1440))
(declare-fun tau_meal_1 () Real)
(declare-fun tau_meal_1_0_0 () Real)
(declare-fun tau_meal_1_0_t () Real)
(declare-fun tau_meal_2 () Real)
(declare-fun tau_meal_2_0_0 () Real)
(declare-fun tau_meal_2_0_t () Real)
(declare-fun u () Real)
(declare-fun u_0_0 () Real)
(declare-fun u_0_t () Real)
(assert (>= u_0_0 (- 1e9)))
(assert (>= u_0_t (- 1e9)))
(assert (<= u_0_0  1e9))
(assert (<= u_0_t  1e9))
(declare-fun x1 () Real)
(declare-fun x1_0_0 () Real)
(declare-fun x1_0_t () Real)
(assert (>= x1_0_0  0))
(assert (>= x1_0_t  0))
(assert (<= x1_0_0  1e3))
(assert (<= x1_0_t  1e3))
(declare-fun x2 () Real)
(declare-fun x2_0_0 () Real)
(declare-fun x2_0_t () Real)
(assert (>= x2_0_0  0))
(assert (>= x2_0_t  0))
(assert (<= x2_0_0  1e3))
(assert (<= x2_0_t  1e3))
(declare-fun x3 () Real)
(declare-fun x3_0_0 () Real)
(declare-fun x3_0_t () Real)
(assert (>= x3_0_0  0))
(assert (>= x3_0_t  0))
(assert (<= x3_0_0  1e3))
(assert (<= x3_0_t  1e3))
; assigning the values of the sample
(assert (>= DG1_0_0 40.71716541491066))
(assert (>= DG1_0_t 40.71716541491066))
(assert (<= DG1_0_0 40.71716541491068))
(assert (<= DG1_0_t 40.71716541491068))
(assert (>= DG2_0_0 84.89326966871808))
(assert (>= DG2_0_t 84.89326966871808))
(assert (<= DG2_0_0 84.89326966871812))
(assert (<= DG2_0_t 84.89326966871812))
(assert (>= DG3_0_0 85.32486303289926))
(assert (>= DG3_0_t 85.32486303289926))
(assert (<= DG3_0_0 85.3248630328993))
(assert (<= DG3_0_t 85.3248630328993))
(assert (>= tau_meal_1_0_0 294.4443362925845))
(assert (>= tau_meal_1_0_t 294.4443362925845))
(assert (<= tau_meal_1_0_0 294.4443362925847))
(assert (<= tau_meal_1_0_t 294.4443362925847))
(assert (>= tau_meal_2_0_0 311.0719357382861))
(assert (>= tau_meal_2_0_t 311.0719357382861))
(assert (<= tau_meal_2_0_0 311.0719357382863))
(assert (<= tau_meal_2_0_t 311.0719357382863))
(assert (>= Kd_0_0 0))
(assert (>= Kd_0_t 0))
(assert (<= Kd_0_0 0))
(assert (<= Kd_0_t 0))
(assert (>= Ki_0_0 0))
(assert (>= Ki_0_t 0))
(assert (<= Ki_0_0 0))
(assert (<= Ki_0_t 0))
(assert (>= Kp_0_0 -0.0005247928585907564))
(assert (>= Kp_0_t -0.0005247928585907564))
(assert (<= Kp_0_0 -0.0005247928585907564))
(assert (<= Kp_0_t -0.0005247928585907564))
; declaring time variable and integration bounds
(declare-fun time () Real)
(assert (>= time 0.0))
(assert (<= time 5.000000000000001))
; defining odes
(define-ode flow_3 ((= d/dt[DG1]  0)
(= d/dt[DG2]  0)
(= d/dt[DG3]  0)
(= d/dt[G1] (/(- G1) 40))
(= d/dt[G2] (/(- G1 G2) 40))
(= d/dt[I] (-(/ S2(* 55(* 0.12 100)))(* 0.138 I)))
(= d/dt[Kd]  0)
(= d/dt[Ki]  0)
(= d/dt[Kp]  0)
(= d/dt[Q1] (+(+(-(+(-(-(* 0.0097 100))(* x1 Q1))(* 0.066 Q2)) 0)(*(* 0.0161 100)(- 1 x3)))(/ G2 40)))
(= d/dt[Q1_prev]  0)
(= d/dt[Q2] (-(* x1 Q1)(*(+ 0.066 x2) Q2)))
(= d/dt[S1] (-(+ u 0.055485957306259535484277955219043)(/ S1 55)))
(= d/dt[S2] (/(- S1 S2) 55))
(= d/dt[counter]  1)
(= d/dt[e]  0)
(= d/dt[e_der]  0)
(= d/dt[e_int]  0)
(= d/dt[r]  0)
(= d/dt[tau]  1)
(= d/dt[tau_meal_1]  0)
(= d/dt[tau_meal_2]  0)
(= d/dt[u]  0)
(= d/dt[x1] (+(*(- 0.006) x1)(* 0.0034 I)))
(= d/dt[x2] (+(*(- 0.06) x2)(* 0.056 I)))
(= d/dt[x3] (+(*(- 0.03) x3)(* 0.024 I)))
))
; defining initial condition
(assert (and (>= G1_0_0 0.431482573431988) (<= G1_0_0 0.4314825734321416)))
(assert (and (>= G2_0_0 2.92650418198934) (<= G2_0_0 2.926504181990431)))
(assert (and (>= I_0_0 0.05413854314712902) (<= I_0_0 0.05413854314753509)))
(assert (and (>= Q1_0_0 95.10136765052719) (<= Q1_0_0 95.10136765210544)))
(assert (and (>= Q1_prev_0_0 95.10136765052719) (<= Q1_prev_0_0 95.10136765210544)))
(assert (and (>= Q2_0_0 25.49394728818288) (<= Q2_0_0 25.49394728874908)))
(assert (and (>= S1_0_0 4.155437972380286) (<= S1_0_0 4.155437972423676)))
(assert (and (>= S2_0_0 4.847093625380364) (<= S2_0_0 4.847093625418146)))
(assert (and (>= counter_0_0 -4.940656458412465e-324) (<= counter_0_0 4.940656458412465e-324)))
(assert (and (>= e_0_0 2.676410125672319) (<= e_0_0 2.676410127250591)))
(assert (and (>= e_der_0_0 0.5674155274617787) (<= e_der_0_0 0.5674155275669707)))
(assert (and (>= e_int_0_0 -50251.41999797186) (<= e_int_0_0 -50251.41999754436)))
(assert (and (>= r_0_0 97.77777777777776) (<= r_0_0 97.77777777777779)))
(assert (and (>= tau_0_0 271.1113274148209) (<= tau_0_0 271.1113274148403)))
(assert (and (>= u_0_0 8.4317162023513e-05) (<= u_0_0 8.431716285308385e-05)))
(assert (and (>= x1_0_0 0.03023582784197954) (<= x1_0_0 0.03023582784211057)))
(assert (and (>= x2_0_0 0.05199152118935033) (<= x2_0_0 0.05199152118970784)))
(assert (and (>= x3_0_0 0.044831302641507) (<= x3_0_0 0.04483130264179311)))
; defining the integral
(assert (= [DG1_0_t DG2_0_t DG3_0_t G1_0_t G2_0_t I_0_t Kd_0_t Ki_0_t Kp_0_t Q1_0_t Q1_prev_0_t Q2_0_t S1_0_t S2_0_t counter_0_t e_0_t e_der_0_t e_int_0_t r_0_t tau_0_t tau_meal_1_0_t tau_meal_2_0_t u_0_t x1_0_t x2_0_t x3_0_t ] (integral 0.0 time [DG1_0_0 DG2_0_0 DG3_0_0 G1_0_0 G2_0_0 I_0_0 Kd_0_0 Ki_0_0 Kp_0_0 Q1_0_0 Q1_prev_0_0 Q2_0_0 S1_0_0 S2_0_0 counter_0_0 e_0_0 e_der_0_0 e_int_0_0 r_0_0 tau_0_0 tau_meal_1_0_0 tau_meal_2_0_0 u_0_0 x1_0_0 x2_0_0 x3_0_0 ] flow_3)))
; defining invariants negations
(assert (or
(not (>=(-(/ Q1_0_t(* 0.16 100)) 4) 0))
(not (>=(- 16(/ Q1_0_t(* 0.16 100))) 0))
(not (>=(+ u_0_t 0.055485957306259535484277955219043) 0))
))
(check-sat)
(exit)
